sat
(= |goto_symex::&92;guard#1| true)
(= |goto_symex::&92;guard#2| false)
(= |memory_model::choice_rf_1_35_0_10_T_0| true)
(= |memory_model::choice_rf_1_35_2_17_T_1| false)
(= |memory_model::choice_rf_1_35_3_37_T_2| false)
(= |memory_model::choice_rf_2_16_0_10_T_3| true)
(= |memory_model::choice_rf_2_16_1_36_T_4| false)
(= |memory_model::choice_rf_2_16_3_37_T_5| false)
(= |memory_model::choice_rf_3_36_0_10_T_6| true)
(= |memory_model::choice_rf_3_36_1_36_T_7| false)
(= |memory_model::choice_rf_3_36_2_17_T_8| false)
(= |memory_model::choice_rf_0_42_0_8_T_9| false)
(= |memory_model::choice_rf_0_42_0_38_T_10| true)
(= |memory_model::choice_rf_0_47_0_8_T_11| false)
(= |memory_model::choice_rf_0_47_0_38_T_12| false)
(= |memory_model::choice_rf_0_47_0_43_T_13| true)
(= |memory_model::choice_rf_0_70_0_18_F_14| false)
(= |memory_model::choice_rf_0_70_1_20_F_15| false)
(= |memory_model::choice_rf_0_70_2_0_F_16| true)
(= |memory_model::choice_rf_1_19_0_18_F_17| false)
(= |memory_model::choice_rf_1_19_2_0_F_18| false)
(= |memory_model::choice_rf_0_51_0_11_F_19| false)
(= |memory_model::choice_rf_0_51_1_34_F_20| false)
(= |memory_model::choice_rf_0_51_2_15_F_21| true)
(= |memory_model::choice_rf_0_51_3_35_F_22| false)
(= |memory_model::choice_rf_1_33_0_11_F_23| true)
(= |memory_model::choice_rf_1_33_2_15_F_24| false)
(= |memory_model::choice_rf_1_33_3_35_F_25| false)
(= |memory_model::choice_rf_2_14_0_11_F_26| false)
(= |memory_model::choice_rf_2_14_1_34_F_27| false)
(= |memory_model::choice_rf_2_14_3_35_F_28| true)
(= |memory_model::choice_rf_3_34_0_11_F_29| false)
(= |memory_model::choice_rf_3_34_1_34_F_30| true)
(= |memory_model::choice_rf_3_34_2_15_F_31| false)
(= |memory_model::choice_rf_0_68_0_12_F_32| false)
(= |memory_model::choice_rf_0_68_3_2_F_33| true)
(= |memory_model::choice_rf_0_67_0_13_F_34| false)
(= |memory_model::choice_rf_0_67_3_10_F_35| true)
(= |memory_model::choice_rf_0_53_0_14_F_36| false)
(= |memory_model::choice_rf_0_53_0_52_F_37| true)
(= |memory_model::choice_rf_0_66_0_15_F_38| false)
(= |memory_model::choice_rf_0_72_0_15_F_39| false)
(= |memory_model::choice_rf_0_72_0_71_F_40| true)
(= |memory_model::choice_rf_0_73_0_15_F_41| false)
(= |memory_model::choice_rf_0_73_0_71_F_42| true)
(= |memory_model::choice_rf_0_69_0_19_F_43| false)
(= |memory_model::choice_rf_0_69_2_1_F_44| false)
(= |memory_model::choice_rf_0_69_3_0_F_45| true)
(= |memory_model::choice_rf_3_1_0_19_F_46| false)
(= |memory_model::choice_rf_3_1_2_1_F_47| false)
(= |memory_model::choice_rf_3_1_3_0_F_48| true)
(= |memory_model::choice_rf_0_54_0_20_F_49| false)
(= |memory_model::choice_rf_0_54_1_32_F_50| false)
(= |memory_model::choice_rf_0_54_2_13_F_51| true)
(= |memory_model::choice_rf_0_54_3_16_F_52| false)
(= |memory_model::choice_rf_0_54_3_33_F_53| false)
(= |memory_model::choice_rf_1_21_0_20_F_54| false)
(= |memory_model::choice_rf_1_21_0_65_F_55| false)
(= |memory_model::choice_rf_1_21_2_13_F_56| false)
(= |memory_model::choice_rf_1_21_3_16_F_57| true)
(= |memory_model::choice_rf_1_21_3_33_F_58| false)
(= |memory_model::choice_rf_2_2_0_20_F_59| false)
(= |memory_model::choice_rf_2_2_0_65_F_60| false)
(= |memory_model::choice_rf_2_2_1_32_F_61| false)
(= |memory_model::choice_rf_2_2_3_16_F_62| false)
(= |memory_model::choice_rf_2_2_3_33_F_63| true)
(= |memory_model::choice_rf_3_9_0_20_F_64| true)
(= |memory_model::choice_rf_3_9_0_65_F_65| false)
(= |memory_model::choice_rf_3_9_1_32_F_66| false)
(= |memory_model::choice_rf_3_9_2_13_F_67| false)
(= |memory_model::choice_rf_3_22_0_20_F_68| false)
(= |memory_model::choice_rf_3_22_0_65_F_69| false)
(= |memory_model::choice_rf_3_22_1_32_F_70| true)
(= |memory_model::choice_rf_3_22_2_13_F_71| false)
(= |memory_model::choice_rf_3_22_3_16_F_72| false)
(= |memory_model::choice_rf_0_59_0_23_F_73| true)
(= |memory_model::choice_rf_1_6_0_23_F_74| true)
(= |memory_model::choice_rf_1_6_0_62_F_75| false)
(= |memory_model::choice_rf_1_3_0_24_F_76| true)
(= |memory_model::choice_rf_1_26_0_24_F_77| false)
(= |memory_model::choice_rf_1_26_1_10_F_78| true)
(= |memory_model::choice_rf_1_2_0_25_F_79| true)
(= |memory_model::choice_rf_1_2_2_10_F_80| false)
(= |memory_model::choice_rf_2_7_0_25_F_81| true)
(= |memory_model::choice_rf_1_4_0_26_F_82| true)
(= |memory_model::choice_rf_1_4_3_11_F_83| false)
(= |memory_model::choice_rf_1_4_3_29_F_84| false)
(= |memory_model::choice_rf_3_6_0_26_F_85| true)
(= |memory_model::choice_rf_3_26_0_26_F_86| false)
(= |memory_model::choice_rf_3_26_3_11_F_87| true)
(= |memory_model::choice_rf_0_58_0_27_F_88| false)
(= |memory_model::choice_rf_0_58_1_13_F_89| true)
(= |memory_model::choice_rf_1_5_0_27_F_90| false)
(= |memory_model::choice_rf_1_5_0_61_F_91| false)
(= |memory_model::choice_rf_1_1_0_28_F_92| false)
(= |memory_model::choice_rf_1_23_0_28_F_93| false)
(= |memory_model::choice_rf_1_23_1_12_F_94| true)
(= |memory_model::choice_rf_1_0_0_29_F_95| false)
(= |memory_model::choice_rf_1_0_2_9_F_96| false)
(= |memory_model::choice_rf_2_4_0_29_F_97| false)
(= |memory_model::choice_rf_2_4_1_11_F_98| true)
(= |memory_model::choice_rf_1_7_0_30_F_99| false)
(= |memory_model::choice_rf_1_7_3_12_F_100| false)
(= |memory_model::choice_rf_1_7_3_31_F_101| false)
(= |memory_model::choice_rf_3_7_0_30_F_102| false)
(= |memory_model::choice_rf_3_7_1_14_F_103| true)
(= |memory_model::choice_rf_3_27_0_30_F_104| false)
(= |memory_model::choice_rf_3_27_1_14_F_105| false)
(= |memory_model::choice_rf_3_27_3_12_F_106| true)
(= |memory_model::choice_rf_0_57_0_33_F_107| false)
(= |memory_model::choice_rf_0_57_1_17_F_108| false)
(= |memory_model::choice_rf_0_57_3_15_F_109| true)
(= |memory_model::choice_rf_1_9_0_33_F_110| true)
(= |memory_model::choice_rf_1_9_3_15_F_111| false)
(= |memory_model::choice_rf_1_25_0_33_F_112| false)
(= |memory_model::choice_rf_1_25_1_17_F_113| false)
(= |memory_model::choice_rf_1_25_3_15_F_114| true)
(= |memory_model::choice_rf_2_6_0_33_F_115| false)
(= |memory_model::choice_rf_2_6_1_17_F_116| false)
(= |memory_model::choice_rf_2_6_3_15_F_117| true)
(= |memory_model::choice_rf_3_4_0_33_F_118| false)
(= |memory_model::choice_rf_3_4_1_17_F_119| true)
(= |memory_model::choice_rf_3_25_0_33_F_120| false)
(= |memory_model::choice_rf_3_25_1_17_F_121| false)
(= |memory_model::choice_rf_3_25_3_15_F_122| true)
(= |memory_model::choice_rf_0_60_0_34_F_123| false)
(= |memory_model::choice_rf_0_60_1_15_F_124| false)
(= |memory_model::choice_rf_0_60_1_31_F_125| false)
(= |memory_model::choice_rf_0_60_2_12_F_126| true)
(= |memory_model::choice_rf_0_60_3_13_F_127| false)
(= |memory_model::choice_rf_0_60_3_32_F_128| false)
(= |memory_model::choice_rf_1_8_0_34_F_129| true)
(= |memory_model::choice_rf_1_8_0_64_F_130| false)
(= |memory_model::choice_rf_1_8_2_12_F_131| false)
(= |memory_model::choice_rf_1_8_3_13_F_132| false)
(= |memory_model::choice_rf_1_8_3_32_F_133| false)
(= |memory_model::choice_rf_1_27_0_34_F_134| false)
(= |memory_model::choice_rf_1_27_0_64_F_135| false)
(= |memory_model::choice_rf_1_27_1_15_F_136| false)
(= |memory_model::choice_rf_1_27_2_12_F_137| false)
(= |memory_model::choice_rf_1_27_3_13_F_138| true)
(= |memory_model::choice_rf_1_27_3_32_F_139| false)
(= |memory_model::choice_rf_2_8_0_34_F_140| false)
(= |memory_model::choice_rf_2_8_0_64_F_141| false)
(= |memory_model::choice_rf_2_8_1_15_F_142| false)
(= |memory_model::choice_rf_2_8_1_31_F_143| false)
(= |memory_model::choice_rf_2_8_3_13_F_144| false)
(= |memory_model::choice_rf_2_8_3_32_F_145| true)
(= |memory_model::choice_rf_3_8_0_34_F_146| false)
(= |memory_model::choice_rf_3_8_0_64_F_147| false)
(= |memory_model::choice_rf_3_8_1_15_F_148| true)
(= |memory_model::choice_rf_3_8_1_31_F_149| false)
(= |memory_model::choice_rf_3_8_2_12_F_150| false)
(= |memory_model::choice_rf_3_28_0_34_F_151| false)
(= |memory_model::choice_rf_3_28_0_64_F_152| false)
(= |memory_model::choice_rf_3_28_1_15_F_153| false)
(= |memory_model::choice_rf_3_28_1_31_F_154| true)
(= |memory_model::choice_rf_3_28_2_12_F_155| false)
(= |memory_model::choice_rf_3_28_3_13_F_156| false)
(= |memory_model::choice_rf_0_55_0_35_F_157| false)
(= |memory_model::choice_rf_0_55_1_18_F_158| false)
(= |memory_model::choice_rf_0_55_3_14_F_159| true)
(= |memory_model::choice_rf_1_22_0_35_F_160| false)
(= |memory_model::choice_rf_1_22_1_18_F_161| false)
(= |memory_model::choice_rf_1_22_3_14_F_162| true)
(= |memory_model::choice_rf_2_3_0_35_F_163| false)
(= |memory_model::choice_rf_2_3_1_18_F_164| false)
(= |memory_model::choice_rf_2_3_3_14_F_165| true)
(= |memory_model::choice_rf_3_3_0_35_F_166| false)
(= |memory_model::choice_rf_3_3_1_18_F_167| true)
(= |memory_model::choice_rf_3_23_0_35_F_168| false)
(= |memory_model::choice_rf_3_23_1_18_F_169| false)
(= |memory_model::choice_rf_3_23_3_14_F_170| true)
(= |memory_model::choice_rf_0_56_0_36_F_171| false)
(= |memory_model::choice_rf_0_56_1_16_F_172| false)
(= |memory_model::choice_rf_0_56_1_30_F_173| false)
(= |memory_model::choice_rf_0_56_2_11_F_174| true)
(= |memory_model::choice_rf_0_56_3_20_F_175| false)
(= |memory_model::choice_rf_0_56_3_30_F_176| false)
(= |memory_model::choice_rf_1_24_0_36_F_177| false)
(= |memory_model::choice_rf_1_24_0_63_F_178| false)
(= |memory_model::choice_rf_1_24_1_16_F_179| false)
(= |memory_model::choice_rf_1_24_2_11_F_180| false)
(= |memory_model::choice_rf_1_24_3_20_F_181| true)
(= |memory_model::choice_rf_1_24_3_30_F_182| false)
(= |memory_model::choice_rf_2_5_0_36_F_183| false)
(= |memory_model::choice_rf_2_5_0_63_F_184| false)
(= |memory_model::choice_rf_2_5_1_16_F_185| false)
(= |memory_model::choice_rf_2_5_1_30_F_186| false)
(= |memory_model::choice_rf_2_5_3_20_F_187| false)
(= |memory_model::choice_rf_2_5_3_30_F_188| true)
(= |memory_model::choice_rf_3_5_0_36_F_189| false)
(= |memory_model::choice_rf_3_5_0_63_F_190| false)
(= |memory_model::choice_rf_3_5_1_16_F_191| true)
(= |memory_model::choice_rf_3_5_1_30_F_192| false)
(= |memory_model::choice_rf_3_5_2_11_F_193| false)
(= |memory_model::choice_rf_3_24_0_36_F_194| false)
(= |memory_model::choice_rf_3_24_0_63_F_195| false)
(= |memory_model::choice_rf_3_24_1_16_F_196| false)
(= |memory_model::choice_rf_3_24_1_30_F_197| true)
(= |memory_model::choice_rf_3_24_2_11_F_198| false)
(= |memory_model::choice_rf_3_24_3_20_F_199| false)
(= |memory_model::choice_ws-ext_0_10_1_36_T_200| true)
(= |memory_model::choice_ws-ext_0_10_2_17_T_201| true)
(= |memory_model::choice_ws-ext_0_10_3_37_T_202| true)
(= |memory_model::choice_ws-ext_1_36_2_17_T_203| true)
(= |memory_model::choice_ws-ext_1_36_3_37_T_204| true)
(= |memory_model::choice_ws-ext_2_17_3_37_T_205| true)
(= |memory_model::choice_ws-ext_0_18_1_20_F_206| true)
(= |memory_model::choice_ws-ext_0_18_2_0_F_207| true)
(= |memory_model::choice_ws-ext_1_20_2_0_F_208| true)
(= |memory_model::choice_ws-ext_0_11_1_34_F_209| true)
(= |memory_model::choice_ws-ext_0_11_2_15_F_210| true)
(= |memory_model::choice_ws-ext_0_11_3_35_F_211| true)
(= |memory_model::choice_ws-ext_1_34_2_15_F_212| true)
(= |memory_model::choice_ws-ext_1_34_3_35_F_213| true)
(= |memory_model::choice_ws-ext_2_15_3_35_F_214| false)
(= |memory_model::choice_ws-ext_0_12_3_2_F_215| true)
(= |memory_model::choice_ws-ext_0_13_3_10_F_216| true)
(= |memory_model::choice_ws-ext_0_19_2_1_F_217| true)
(= |memory_model::choice_ws-ext_0_19_3_0_F_218| true)
(= |memory_model::choice_ws-ext_2_1_3_0_F_219| true)
(= |memory_model::choice_ws-ext_0_20_1_32_F_220| true)
(= |memory_model::choice_ws-ext_0_20_2_13_F_221| true)
(= |memory_model::choice_ws-ext_0_20_3_16_F_222| true)
(= |memory_model::choice_ws-ext_0_20_3_33_F_223| true)
(= |memory_model::choice_ws-ext_0_65_1_32_F_224| false)
(= |memory_model::choice_ws-ext_0_65_2_13_F_225| false)
(= |memory_model::choice_ws-ext_0_65_3_16_F_226| false)
(= |memory_model::choice_ws-ext_0_65_3_33_F_227| false)
(= |memory_model::choice_ws-ext_1_32_2_13_F_228| true)
(= |memory_model::choice_ws-ext_1_32_3_16_F_229| false)
(= |memory_model::choice_ws-ext_1_32_3_33_F_230| true)
(= |memory_model::choice_ws-ext_2_13_3_16_F_231| false)
(= |memory_model::choice_ws-ext_2_13_3_33_F_232| false)
(= |memory_model::choice_ws-ext_0_21_3_18_F_233| true)
(= |memory_model::choice_ws-ext_0_22_3_17_F_234| true)
(= |memory_model::choice_ws-ext_0_24_1_10_F_235| true)
(= |memory_model::choice_ws-ext_0_24_1_29_F_236| true)
(= |memory_model::choice_ws-ext_0_25_2_10_F_237| true)
(= |memory_model::choice_ws-ext_0_26_3_11_F_238| true)
(= |memory_model::choice_ws-ext_0_26_3_29_F_239| true)
(= |memory_model::choice_ws-ext_0_27_1_13_F_240| true)
(= |memory_model::choice_ws-ext_0_61_1_13_F_241| false)
(= |memory_model::choice_ws-ext_0_28_1_12_F_242| true)
(= |memory_model::choice_ws-ext_0_28_1_28_F_243| true)
(= |memory_model::choice_ws-ext_0_29_1_11_F_244| true)
(= |memory_model::choice_ws-ext_0_29_2_9_F_245| true)
(= |memory_model::choice_ws-ext_1_11_2_9_F_246| true)
(= |memory_model::choice_ws-ext_0_30_1_14_F_247| true)
(= |memory_model::choice_ws-ext_0_30_3_12_F_248| true)
(= |memory_model::choice_ws-ext_0_30_3_31_F_249| true)
(= |memory_model::choice_ws-ext_1_14_3_12_F_250| true)
(= |memory_model::choice_ws-ext_1_14_3_31_F_251| true)
(= |memory_model::choice_ws-ext_0_33_1_17_F_252| true)
(= |memory_model::choice_ws-ext_0_33_3_15_F_253| true)
(= |memory_model::choice_ws-ext_1_17_3_15_F_254| true)
(= |memory_model::choice_ws-ext_0_34_1_15_F_255| true)
(= |memory_model::choice_ws-ext_0_34_1_31_F_256| true)
(= |memory_model::choice_ws-ext_0_34_2_12_F_257| true)
(= |memory_model::choice_ws-ext_0_34_3_13_F_258| true)
(= |memory_model::choice_ws-ext_0_34_3_32_F_259| true)
(= |memory_model::choice_ws-ext_0_64_1_15_F_260| false)
(= |memory_model::choice_ws-ext_0_64_1_31_F_261| false)
(= |memory_model::choice_ws-ext_0_64_2_12_F_262| false)
(= |memory_model::choice_ws-ext_0_64_3_13_F_263| false)
(= |memory_model::choice_ws-ext_0_64_3_32_F_264| false)
(= |memory_model::choice_ws-ext_1_15_2_12_F_265| true)
(= |memory_model::choice_ws-ext_1_15_3_13_F_266| true)
(= |memory_model::choice_ws-ext_1_15_3_32_F_267| true)
(= |memory_model::choice_ws-ext_1_31_2_12_F_268| true)
(= |memory_model::choice_ws-ext_1_31_3_13_F_269| false)
(= |memory_model::choice_ws-ext_1_31_3_32_F_270| true)
(= |memory_model::choice_ws-ext_2_12_3_13_F_271| false)
(= |memory_model::choice_ws-ext_2_12_3_32_F_272| false)
(= |memory_model::choice_ws-ext_0_35_1_18_F_273| true)
(= |memory_model::choice_ws-ext_0_35_3_14_F_274| true)
(= |memory_model::choice_ws-ext_1_18_3_14_F_275| true)
(= |memory_model::choice_ws-ext_0_36_1_16_F_276| true)
(= |memory_model::choice_ws-ext_0_36_1_30_F_277| true)
(= |memory_model::choice_ws-ext_0_36_2_11_F_278| true)
(= |memory_model::choice_ws-ext_0_36_3_20_F_279| true)
(= |memory_model::choice_ws-ext_0_36_3_30_F_280| true)
(= |memory_model::choice_ws-ext_0_63_1_16_F_281| false)
(= |memory_model::choice_ws-ext_0_63_1_30_F_282| false)
(= |memory_model::choice_ws-ext_0_63_2_11_F_283| false)
(= |memory_model::choice_ws-ext_0_63_3_20_F_284| false)
(= |memory_model::choice_ws-ext_0_63_3_30_F_285| false)
(= |memory_model::choice_ws-ext_1_16_2_11_F_286| true)
(= |memory_model::choice_ws-ext_1_16_3_20_F_287| true)
(= |memory_model::choice_ws-ext_1_16_3_30_F_288| true)
(= |memory_model::choice_ws-ext_1_30_2_11_F_289| true)
(= |memory_model::choice_ws-ext_1_30_3_20_F_290| false)
(= |memory_model::choice_ws-ext_1_30_3_30_F_291| true)
(= |memory_model::choice_ws-ext_2_11_3_20_F_292| false)
(= |memory_model::choice_ws-ext_2_11_3_30_F_293| false)
(= |memory_model::choice_ws-ext_0_16_3_21_F_294| true)
(= |memory_model::choice_ws-ext_0_17_3_19_F_295| true)
(= |main$tmp_guard0#3| #b00000001)
(= |__CPROVER_next_thread_id#3| #b00000000000000000000000000000001)
(= |__CPROVER_next_thread_id#6| #b00000000000000000000000000000010)
(= |__unbuffered_cnt#2| #b00000000000000000000000000000011)
(= |z$w_buff0_used#2| #b00000000)
(= |z$r_buff0_thd0#2| #b00000000)
(= |z$w_buff0#2| #b00000000000000000000000000000001)
(= |z$w_buff1_used#2| #b00000000)
(= |z$r_buff1_thd0#2| #b00000000)
(= |z$w_buff1#2| #b00000000000000000000000000000000)
(= |z#2| #b00000000000000000000000000000001)
(= |z#4| #b00000000000000000000000000000001)
(= |z$w_buff0_used#6| #b00000000)
(= |z$w_buff1_used#6| #b00000000)
(= |z$r_buff0_thd0#8| #b00000000)
(= |z$r_buff1_thd0#7| #b00000000)
(= |x#2| #b00000000000000000000000000000010)
(= |y#2| #b00000000000000000000000000000010)
(= |__unbuffered_p2_EAX#2| #b00000000000000000000000000000010)
(= |__unbuffered_p2_EBX#2| #b00000000000000000000000000000000)
(= |main$tmp_guard1#2| #b00000000)
(= |main$tmp_guard1#3| #b10000000)
(= |main$tmp_guard1#6| #b00000000)
(= |pthread_create::1::this_thread_id!1@0#0| #b10000000000000000000000000000000)
(= |z$w_buff0#4| #b00000000000000000000000000000000)
(= |z$w_buff0_used#11| #b00000000)
(= |z$r_buff0_thd0#11| #b00000000)
(= |z$r_buff1_thd0#9| #b00000000)
(= |z$r_buff1_thd0#10| #b10000000)
(= |z$r_buff0_thd1#2| #b00000000)
(= |z$r_buff1_thd1#2| #b00000000)
(= |z$r_buff1_thd1#3| #b10000000)
(= |z$r_buff0_thd2#2| #b00000000)
(= |z$r_buff1_thd2#2| #b00000000)
(= |z$r_buff1_thd2#3| #b10000000)
(= |z$r_buff0_thd3#2| #b00000000)
(= |z$r_buff1_thd3#2| #b00000000)
(= |z$r_buff1_thd3#3| #b10000000)
(= |z$r_buff0_thd1#4| #b00000001)
(= |x#4| #b00000000000000000000000000000001)
(= |x#5| #b10000000000000000000000000000000)
(= |z$w_buff0_used#14| #b00000001)
(= |z$r_buff0_thd1#6| #b00000001)
(= |z$w_buff0#7| #b00000000000000000000000000000001)
(= |z$w_buff1_used#10| #b00000000)
(= |z$r_buff1_thd1#5| #b00000000)
(= |z$w_buff1#5| #b00000000000000000000000000000000)
(= |z#6| #b00000000000000000000000000000000)
(= |z#8| #b00000000000000000000000000000001)
(= |z$w_buff0_used#18| #b00000000)
(= |z$w_buff1_used#14| #b00000000)
(= |z$r_buff0_thd1#12| #b00000001)
(= |z$r_buff1_thd1#10| #b00000000)
(= |__unbuffered_cnt#4| #b00000000000000000000000000000000)
(= |__unbuffered_cnt#6| #b00000000000000000000000000000001)
(= |pthread_create::1::this_thread_id!2@0#0| #b00000000000000000000000000000000)
(= |z$w_buff0_used#23| #b00000000)
(= |z$r_buff0_thd2#4| #b00000000)
(= |z$w_buff0#9| #b00000000000000000000000000000001)
(= |z$w_buff1_used#17| #b00000000)
(= |z$r_buff1_thd2#5| #b00000000)
(= |z$w_buff1#7| #b00000000000000000000000000000000)
(= |z#10| #b00000000000000000000000000000001)
(= |__unbuffered_cnt#8| #b00000000000000000000000000000010)
(= |pthread_create::1::this_thread_id!3@0#0| #b10000000000000000000000000000000)
(= |y#6| #b00000000000000000000000000000010)
(= |nondet_symex::nondet3| #b00000000000000000000000000000000)
(= |z#13| #b00000000000000000000000000000000)
(= |z$w_buff0_used#26| #b00000001)
(= |z$r_buff0_thd3#4| #b00000000)
(= |z$w_buff1_used#20| #b00000000)
(= |z$r_buff1_thd3#5| #b00000000)
(= |z$w_buff0#11| #b00000000000000000000000000000001)
(= |z$w_buff1#9| #b00000000000000000000000000000000)
(= |z$w_buff0_used#29| #b00000000)
(= |z$r_buff0_thd3#7| #b00000000)
(= |z$w_buff0#14| #b00000000000000000000000000000001)
(= |z$w_buff1_used#23| #b00000000)
(= |z$r_buff1_thd3#8| #b00000000)
(= |z$w_buff1#12| #b00000000000000000000000000000000)
(= |z#17| #b00000000000000000000000000000001)
(= |__unbuffered_cnt#11| #b00000000000000000000000000000001)
(= |__CPROVER_threads_exited#1$wclk$8| #b00110000)
(= |__CPROVER_threads_exited#2$rclk$8| #b11111011)
(= |__CPROVER_threads_exited#5$wclk$8| #b11111110)
(= |__CPROVER_threads_exited#7$wclk$8| #b11111111)
(= |__CPROVER_threads_exited#4$rclk$8| #b11111011)
(= |__CPROVER_threads_exited#3$wclk$8| #b11111100)
(= |__CPROVER_threads_exited#6$rclk$8| #b11111011)
(= |x#6$wclk$8| #b10010010)
(= |x#2$rclk$8| #b11111010)
(= |x#7$wclk$8| #b10010110)
(= |x#1$wclk$8| #b01111000)
(= |x#5$rclk$8| #b10010010)
(= |__unbuffered_cnt#7$wclk$8| #b11100000)
(= |__unbuffered_cnt#2$rclk$8| #b11110111)
(= |__unbuffered_cnt#10$wclk$8| #b11110011)
(= |__unbuffered_cnt#13$wclk$8| #b11110010)
(= |__unbuffered_cnt#1$wclk$8| #b01110001)
(= |__unbuffered_cnt#4$rclk$8| #b11100000)
(= |__unbuffered_cnt#8$rclk$8| #b11110011)
(= |__unbuffered_cnt#11$rclk$8| #b11110010)
(= |__unbuffered_p2_EAX#4$wclk$8| #b10011111)
(= |__unbuffered_p2_EAX#2$rclk$8| #b11111010)
(= |__unbuffered_p2_EBX#4$wclk$8| #b10110000)
(= |__unbuffered_p2_EBX#2$rclk$8| #b11111010)
(= |main$tmp_guard1#5| #b00000000)
(= |y#4$wclk$8| #b10010111)
(= |y#2$rclk$8| #b11111010)
(= |y#5$wclk$8| #b10011110)
(= |y#1$wclk$8| #b01111001)
(= |y#6$rclk$8| #b10011111)
(= |z#9$wclk$8| #b11010011)
(= |z#2$rclk$8| #b11111001)
(= |z#12$wclk$8| #b11110010)
(= |z#16$wclk$8| #b10110000)
(= |z#19$wclk$8| #b11110001)
(= |z#1$wclk$8| #b01111010)
(= |z#6$rclk$8| #b11010011)
(= |z#5$wclk$8| #b11111001)
(= |z#10$rclk$8| #b11110010)
(= |z#13$rclk$8| #b10110000)
(= |z#17$rclk$8| #b11110001)
(= |z$r_buff0_thd0#1$wclk$8| #b01111101)
(= |z$r_buff0_thd0#11$rclk$8| #b10010001)
(= |z$r_buff0_thd0#10$wclk$8| #b11111001)
(= |z$r_buff0_thd1#1$wclk$8| #b01111110)
(= |z$r_buff0_thd1#2$rclk$8| #b10010001)
(= |z$r_buff0_thd1#6$rclk$8| #b11010011)
(= |z$r_buff0_thd2#1$wclk$8| #b01111111)
(= |z$r_buff0_thd2#2$rclk$8| #b10010001)
(= |z$r_buff0_thd2#6$wclk$8| #b11110010)
(= |z$r_buff0_thd2#4$rclk$8| #b11110010)
(= |z$r_buff0_thd3#1$wclk$8| #b10000000)
(= |z$r_buff0_thd3#2$rclk$8| #b10010001)
(= |z$r_buff0_thd3#6$wclk$8| #b10110000)
(= |z$r_buff0_thd3#9$wclk$8| #b11110001)
(= |z$r_buff0_thd3#4$rclk$8| #b10110000)
(= |z$r_buff0_thd3#7$rclk$8| #b11110001)
(= |z$r_buff1_thd0#11$wclk$8| #b10010001)
(= |z$r_buff1_thd0#2$rclk$8| #b11111001)
(= |z$r_buff1_thd0#1$wclk$8| #b10000001)
(= |z$r_buff1_thd0#10$rclk$8| #b10010001)
(= |z$r_buff1_thd0#8$wclk$8| #b11111001)
(= |z$r_buff1_thd1#1$wclk$8| #b10000010)
(= |z$r_buff1_thd1#3$rclk$8| #b10010001)
(= |z$r_buff1_thd1#5$rclk$8| #b11010011)
(= |z$r_buff1_thd2#1$wclk$8| #b10000011)
(= |z$r_buff1_thd2#3$rclk$8| #b10010001)
(= |z$r_buff1_thd2#7$wclk$8| #b11110010)
(= |z$r_buff1_thd2#5$rclk$8| #b11110010)
(= |z$r_buff1_thd2#4$wclk$8| #b10010001)
(= |z$r_buff1_thd3#1$wclk$8| #b10000100)
(= |z$r_buff1_thd3#3$rclk$8| #b10010001)
(= |z$r_buff1_thd3#7$wclk$8| #b10110000)
(= |z$r_buff1_thd3#10$wclk$8| #b11110001)
(= |z$r_buff1_thd3#5$rclk$8| #b10110000)
(= |z$r_buff1_thd3#4$wclk$8| #b10010001)
(= |z$r_buff1_thd3#8$rclk$8| #b11110001)
(= |z$w_buff0#6$wclk$8| #b10010001)
(= |z$w_buff0#2$rclk$8| #b11111001)
(= |z$w_buff0#13$wclk$8| #b10110000)
(= |z$w_buff0#1$wclk$8| #b10000111)
(= |z$w_buff0#4$rclk$8| #b10010001)
(= |z$w_buff0#7$rclk$8| #b11010011)
(= |z$w_buff0#9$rclk$8| #b11110010)
(= |z$w_buff0#11$rclk$8| #b10110000)
(= |z$w_buff0#14$rclk$8| #b11110001)
(= |z$w_buff0_used#13$wclk$8| #b10010001)
(= |z$w_buff0_used#2$rclk$8| #b11111001)
(= |z$w_buff0_used#22$wclk$8| #b11010011)
(= |z$w_buff0_used#25$wclk$8| #b11110010)
(= |z$w_buff0_used#28$wclk$8| #b10110000)
(= |z$w_buff0_used#31$wclk$8| #b11110001)
(= |z$w_buff0_used#1$wclk$8| #b10001000)
(= |z$w_buff0_used#11$rclk$8| #b10010001)
(= |z$w_buff0_used#10$wclk$8| #b11111001)
(= |z$w_buff0_used#14$rclk$8| #b11010011)
(= |z$w_buff0_used#23$rclk$8| #b11110010)
(= |z$w_buff0_used#26$rclk$8| #b10110000)
(= |z$w_buff0_used#29$rclk$8| #b11110001)
(= |z$w_buff1#4$wclk$8| #b10010001)
(= |z$w_buff1#2$rclk$8| #b11111001)
(= |z$w_buff1#11$wclk$8| #b10110000)
(= |z$w_buff1#1$wclk$8| #b10001011)
(= |z$w_buff1#5$rclk$8| #b11010011)
(= |z$w_buff1#7$rclk$8| #b11110010)
(= |z$w_buff1#9$rclk$8| #b10110000)
(= |z$w_buff1#12$rclk$8| #b11110001)
(= |z$w_buff1_used#9$wclk$8| #b10010001)
(= |z$w_buff1_used#2$rclk$8| #b11111001)
(= |z$w_buff1_used#16$wclk$8| #b11010011)
(= |z$w_buff1_used#19$wclk$8| #b11110010)
(= |z$w_buff1_used#22$wclk$8| #b10110000)
(= |z$w_buff1_used#25$wclk$8| #b11110001)
(= |z$w_buff1_used#1$wclk$8| #b10001100)
(= |z$w_buff1_used#10$rclk$8| #b11010011)
(= |z$w_buff1_used#8$wclk$8| #b11111001)
(= |z$w_buff1_used#17$rclk$8| #b11110010)
(= |z$w_buff1_used#20$rclk$8| #b10110000)
(= |z$w_buff1_used#23$rclk$8| #b11110001)
(= |__unbuffered_p2_EAX#1$wclk$8| #b01110010)
(= |__unbuffered_p2_EBX#1$wclk$8| #b01110011)
(= |z$flush_delayed#1$wclk$8| #b01111011)
(= |z$flush_delayed#3$wclk$8| #b10110000)
(= |z$mem_tmp#1$wclk$8| #b01111100)
(= |z$mem_tmp#2$wclk$8| #b10110000)
(= |z$r_buff0_thd1#5$wclk$8| #b10010001)
(= |z$r_buff0_thd1#14$wclk$8| #b11010011)
(= |z$r_buff1_thd1#4$wclk$8| #b10010001)
(= |z$r_buff1_thd1#11$wclk$8| #b11010011)
(= |weak$$choice0#1$wclk$8| #b01110110)
(= |weak$$choice0#2$wclk$8| #b10110000)
(= |weak$$choice2#1$wclk$8| #b01110111)
(= |weak$$choice2#2$wclk$8| #b10110000)
(= t1$40$spwnclk$8 #b10010000)
(= t1$45$spwnclk$8 #b10010100)
(= t1$50$spwnclk$8 #b10011101)
(= |main::1::t760!0@1$wclk$8| #b00000000)
(= |main::1::t761!0@1$wclk$8| #b00001000)
(= |__CPROVER_dead_object#1$wclk$8| #b00001001)
(= |__CPROVER_deallocated#1$wclk$8| #b00001010)
(= |__CPROVER_malloc_is_new_array#1$wclk$8| #b00001011)
(= |__CPROVER_malloc_object#1$wclk$8| #b00001100)
(= |__CPROVER_malloc_size#1$wclk$8| #b00001101)
(= |__CPROVER_memory_leak#1$wclk$8| #b00001110)
(= |__CPROVER_next_thread_id#1$wclk$8| #b00100001)
(= |__CPROVER_pipe_count#1$wclk$8| #b00100010)
(= |main$tmp_guard0#1$wclk$8| #b01110100)
(= |main$tmp_guard1#1$wclk$8| #b01110101)
(= |z$read_delayed#1$wclk$8| #b10000101)
(= |z$read_delayed_var#1$wclk$8| #b10000110)
(= |main::1::t759!0@1#1$wclk$8| #b10001101)
(= |__CPROVER_next_thread_id#2$wclk$8| #b10001110)
(= |main::1::t759!0@1#2$wclk$8| #b10001111)
(= |main::1::t760!0@1#1$wclk$8| #b10010001)
(= |__CPROVER_next_thread_id#3$rclk$8| #b10010010)
(= |__CPROVER_next_thread_id#5$wclk$8| #b10010010)
(= |main::1::t760!0@1#2$wclk$8| #b10010011)
(= |main::1::t761!0@1#1$wclk$8| #b10010110)
(= |__CPROVER_next_thread_id#6$rclk$8| #b10011010)
(= |__CPROVER_next_thread_id#8$wclk$8| #b10011010)
(= |main::1::t761!0@1#2$wclk$8| #b10011100)
(= |main$tmp_guard0#2$wclk$8| #b11110111)
(= |main$tmp_guard0#3$rclk$8| #b11111000)
(= |z$r_buff0_thd0#2$rclk$8| #b11111001)
(= |main$tmp_guard1#3$rclk$8| #b11111010)
(= |main$tmp_guard1#4$wclk$8| #b11111010)
(= |main$tmp_guard1#5$rclk$8| #b11111011)
(= |main$tmp_guard1#6$rclk$8| #b11111101)
(= array_of.0 @fun_7)
(= |__CPROVER_threads_exited#2| @fun_7)
(= |__CPROVER_threads_exited#4| @fun_7)
(= |__CPROVER_threads_exited#6| @fun_7)
(function @fun_7
 (type (Array (_ BitVec 32) (_ BitVec 1)))
 (= (@fun_7 #b00000000000000000000000000000000) #b0)
 (default #b1))

real	0m0.027s
user	0m0.024s
sys	0m0.003s
State: AC Run_time: 0.029092073440551758